\* Problem: SSCFLP *\

Minimize
 obj: + 2 x_1 + 4 x_2 + 3 x_3 + x_4 + 6 x_5 + x_6 + 7 x_7 + 5 x_8
 + 2 x_9 + x_10 + 3 x_11 + x_12

Subject To
 r_1: + 2 x_5 + x_4 + x_3 + 2 x_2 + x_1 - 10 x_11 <= 0
 r_2: + 2 x_10 + x_9 + x_8 + 2 x_7 + x_6 - 15 x_12 <= 0
 r_3: + x_6 + x_1 = 1
 r_4: + x_7 + x_2 = 1
 r_5: + x_8 + x_3 = 1
 r_6: + x_9 + x_4 = 1
 r_7: + x_10 + x_5 = 1

Bounds
 0 <= x_1 <= 1
 0 <= x_2 <= 1
 0 <= x_3 <= 1
 0 <= x_4 <= 1
 0 <= x_5 <= 1
 0 <= x_6 <= 1
 0 <= x_7 <= 1
 0 <= x_8 <= 1
 0 <= x_9 <= 1
 0 <= x_10 <= 1
 x_11 = 0
 x_12 = 1

End
